(set-info :original "/var/folders/xz/sgqbj6yn0yv_1mpy6_jqympm0000gn/T/sea-GHYF_7/array15_pattern.pp.ms.o.bc")
(set-info :authors "SeaHorn v.0.1.0-rc3")
(declare-rel verifier.error (Bool Bool Bool ))
(declare-rel main@entry (Int Int ))
(declare-rel main@_bb (Int Int Int (Array Int Int) Int Int Int ))
(declare-rel main@_bb8 (Int Int Int (Array Int Int) Int Int ))
(declare-rel main@_bb13 (Int Int Int Int (Array Int Int) Int ))
(declare-rel main@verifier.error.split ())
(declare-rel main@_bb15 (Int Int Int Int Int (Array Int Int) Int ))
(declare-rel main@_bb4 (Int Int Int Int (Array Int Int) Int Int Int ))
(declare-var main@%_15_0 Int )
(declare-var main@%_16_0 Int )
(declare-var main@%_17_0 Int )
(declare-var main@%_12_0 Int )
(declare-var main@%_13_0 Bool )
(declare-var main@%_67_0 Int )
(declare-var main@%_68_0 Int )
(declare-var main@%_69_0 Int )
(declare-var main@%_70_0 Int )
(declare-var main@%_71_0 Int )
(declare-var main@%_64_0 Int )
(declare-var main@%_65_0 Bool )
(declare-var main@%_83_0 Bool )
(declare-var main@%_76_0 Int )
(declare-var main@%_77_0 Int )
(declare-var main@%_78_0 Int )
(declare-var main@%_79_0 Int )
(declare-var main@%_80_0 Bool )
(declare-var main@%_82_0 Bool )
(declare-var main@%_60_0 Int )
(declare-var main@%_61_0 Bool )
(declare-var main@%_49_0 Int )
(declare-var main@%_50_0 Int )
(declare-var main@%_51_0 Int )
(declare-var main@%_52_0 Int )
(declare-var main@%_53_0 Int )
(declare-var main@%_54_0 Int )
(declare-var @__VERIFIER_nondet_int_0 Int )
(declare-var main@%_55_0 Int )
(declare-var main@%_56_0 Bool )
(declare-var main@%_41_0 Int )
(declare-var main@%_42_0 Int )
(declare-var main@%_43_0 Int )
(declare-var main@%_44_0 Int )
(declare-var main@%_45_0 Int )
(declare-var main@%_23_0 Int )
(declare-var main@%_25_0 Int )
(declare-var main@%_27_0 Bool )
(declare-var main@%_28_0 Bool )
(declare-var main@%..i_0 Bool )
(declare-var main@%_29_0 Bool )
(declare-var main@%_30_0 Bool )
(declare-var main@%_31_0 Bool )
(declare-var main@%_32_0 Int )
(declare-var main@%_33_0 Int )
(declare-var main@%_34_0 Int )
(declare-var main@%_35_0 Int )
(declare-var main@%_36_0 Int )
(declare-var main@%_37_0 Bool )
(declare-var main@%_38_0 Int )
(declare-var main@%_39_0 Bool )
(declare-var main@%or.cond.i_0 Bool )
(declare-var main@%_48_2 Int )
(declare-var main@%_8_0 Int )
(declare-var main@%_9_0 Bool )
(declare-var main@%_0_0 Int )
(declare-var main@%_2_0 Bool )
(declare-var main@%_3_0 Int )
(declare-var @__VERIFIER_nondet_short_0 Int )
(declare-var main@entry_0 Bool )
(declare-var main@%sm2_0 (Array Int Int) )
(declare-var main@%_1_0 Int )
(declare-var main@%_4_0 Int )
(declare-var main@%_6_0 Int )
(declare-var main@_bb_0 Bool )
(declare-var main@%shadow.mem.0.0_0 (Array Int Int) )
(declare-var main@%.0.i_0 Int )
(declare-var main@%shadow.mem.0.0_1 (Array Int Int) )
(declare-var main@%.0.i_1 Int )
(declare-var main@_bb7_0 Bool )
(declare-var main@_bb8_0 Bool )
(declare-var main@%shadow.mem.0.2_0 (Array Int Int) )
(declare-var main@%shadow.mem.0.2_1 (Array Int Int) )
(declare-var main@_bb3_0 Bool )
(declare-var main@_bb4_0 Bool )
(declare-var main@%shadow.mem.0.1_0 (Array Int Int) )
(declare-var main@%.01.i_0 Int )
(declare-var main@%shadow.mem.0.1_1 (Array Int Int) )
(declare-var main@%.01.i_1 Int )
(declare-var main@%_24_0 Int )
(declare-var main@%_26_0 Int )
(declare-var main@_bb9_0 Bool )
(declare-var main@%_46_0 Int )
(declare-var main@_bb10_0 Bool )
(declare-var |tuple(main@_bb8_0, main@_bb10_0)| Bool )
(declare-var main@%_48_0 Int )
(declare-var main@%_48_1 Int )
(declare-var main@%sm1_0 (Array Int Int) )
(declare-var main@_bb11_0 Bool )
(declare-var main@_bb8_1 Bool )
(declare-var main@%shadow.mem.0.2_2 (Array Int Int) )
(declare-var main@_bb12_0 Bool )
(declare-var main@_bb13_0 Bool )
(declare-var main@%.03.i_0 Int )
(declare-var main@%.1.i_0 Int )
(declare-var main@%.03.i_1 Int )
(declare-var main@%.1.i_1 Int )
(declare-var main@orig.main.exit_0 Bool )
(declare-var main@%_81_0 Int )
(declare-var main@precall_0 Bool )
(declare-var main@__JVERIFIER_assert_0 Bool )
(declare-var main@_bb18_0 Bool )
(declare-var main@verifier.error_0 Bool )
(declare-var main@verifier.error.split_0 Bool )
(declare-var main@_bb14_0 Bool )
(declare-var main@_bb15_0 Bool )
(declare-var main@%.14.i_0 Int )
(declare-var main@%.12.i_0 Int )
(declare-var main@%.14.i_1 Int )
(declare-var main@%.12.i_1 Int )
(declare-var main@_bb17_0 Bool )
(declare-var main@%_75_0 Int )
(declare-var main@%.1.i_2 Int )
(declare-var main@_bb16_0 Bool )
(declare-var main@%_72_0 Int )
(declare-var main@%_73_0 Int )
(declare-var main@_bb15_1 Bool )
(declare-var main@%.14.i_2 Int )
(declare-var main@%.12.i_2 Int )
(declare-var main@_bb6_0 Bool )
(declare-var main@%_20_0 Int )
(declare-var main@%.0.i_2 Int )
(declare-var main@_bb5_0 Bool )
(declare-var main@%sm_0 (Array Int Int) )
(declare-var main@%_18_0 Int )
(declare-var main@_bb4_1 Bool )
(declare-var main@%shadow.mem.0.1_2 (Array Int Int) )
(declare-var main@%.01.i_2 Int )
(rule (verifier.error false false false))
(rule (verifier.error false true true))
(rule (verifier.error true false true))
(rule (verifier.error true true true))
(rule (main@entry @__VERIFIER_nondet_int_0 @__VERIFIER_nondet_short_0))
(rule (=> (and (main@entry @__VERIFIER_nondet_int_0 @__VERIFIER_nondet_short_0)
         true
         (= main@%_0_0 @__VERIFIER_nondet_short_0)
         (= main@%_2_0 (> main@%_1_0 0))
         main@%_2_0
         (= main@%_3_0 main@%_1_0)
         (= main@%_4_0 main@%_1_0)
         (> main@%_6_0 0)
         (=> main@_bb_0 (and main@_bb_0 main@entry_0))
         (=> (and main@_bb_0 main@entry_0)
             (= main@%shadow.mem.0.0_0 main@%sm2_0))
         (=> (and main@_bb_0 main@entry_0) (= main@%.0.i_0 0))
         (=> (and main@_bb_0 main@entry_0)
             (= main@%shadow.mem.0.0_1 main@%shadow.mem.0.0_0))
         (=> (and main@_bb_0 main@entry_0) (= main@%.0.i_1 main@%.0.i_0))
         main@_bb_0)
    (main@_bb main@%.0.i_1
              main@%_4_0
              main@%_6_0
              main@%shadow.mem.0.0_1
              main@%_1_0
              @__VERIFIER_nondet_int_0
              @__VERIFIER_nondet_short_0)))
(rule (=> (and (main@_bb main@%.0.i_0
                   main@%_4_0
                   main@%_6_0
                   main@%shadow.mem.0.0_0
                   main@%_1_0
                   @__VERIFIER_nondet_int_0
                   @__VERIFIER_nondet_short_0)
         true
         (= main@%_8_0 main@%_1_0)
         (= main@%_9_0 (< main@%.0.i_0 main@%_8_0))
         (=> main@_bb7_0 (and main@_bb7_0 main@_bb_0))
         (=> (and main@_bb7_0 main@_bb_0) (not main@%_9_0))
         (=> main@_bb8_0 (and main@_bb8_0 main@_bb7_0))
         (=> (and main@_bb8_0 main@_bb7_0)
             (= main@%shadow.mem.0.2_0 main@%shadow.mem.0.0_0))
         (=> (and main@_bb8_0 main@_bb7_0)
             (= main@%shadow.mem.0.2_1 main@%shadow.mem.0.2_0))
         main@_bb8_0)
    (main@_bb8 main@%_4_0
               main@%_6_0
               main@%_1_0
               main@%shadow.mem.0.2_1
               @__VERIFIER_nondet_int_0
               @__VERIFIER_nondet_short_0)))
(rule (=> (and (main@_bb main@%.0.i_0
                   main@%_4_0
                   main@%_6_0
                   main@%shadow.mem.0.0_0
                   main@%_1_0
                   @__VERIFIER_nondet_int_0
                   @__VERIFIER_nondet_short_0)
         true
         (= main@%_8_0 main@%_1_0)
         (= main@%_9_0 (< main@%.0.i_0 main@%_8_0))
         (=> main@_bb3_0 (and main@_bb3_0 main@_bb_0))
         (=> (and main@_bb3_0 main@_bb_0) main@%_9_0)
         (=> main@_bb4_0 (and main@_bb4_0 main@_bb3_0))
         (=> (and main@_bb4_0 main@_bb3_0)
             (= main@%shadow.mem.0.1_0 main@%shadow.mem.0.0_0))
         (=> (and main@_bb4_0 main@_bb3_0) (= main@%.01.i_0 0))
         (=> (and main@_bb4_0 main@_bb3_0)
             (= main@%shadow.mem.0.1_1 main@%shadow.mem.0.1_0))
         (=> (and main@_bb4_0 main@_bb3_0) (= main@%.01.i_1 main@%.01.i_0))
         main@_bb4_0)
    (main@_bb4 main@%.0.i_0
               main@%_4_0
               main@%_6_0
               main@%.01.i_1
               main@%shadow.mem.0.1_1
               main@%_1_0
               @__VERIFIER_nondet_int_0
               @__VERIFIER_nondet_short_0)))
(rule (let ((a!1 (=> main@_bb9_0 (= main@%_43_0 (+ main@%_6_0 (* main@%_42_0 4)))))
      (a!2 (=> main@_bb9_0 (= main@%_45_0 (+ main@%_43_0 (* main@%_44_0 4)))))
      (a!3 (=> main@_bb10_0 (= main@%_51_0 (+ main@%_6_0 (* main@%_50_0 4)))))
      (a!4 (=> main@_bb10_0 (= main@%_53_0 (+ main@%_51_0 (* main@%_52_0 4))))))
(let ((a!5 (and (main@_bb8 main@%_4_0
                           main@%_6_0
                           main@%_1_0
                           main@%shadow.mem.0.2_0
                           @__VERIFIER_nondet_int_0
                           @__VERIFIER_nondet_short_0)
                true
                (= main@%_23_0 @__VERIFIER_nondet_short_0)
                (= main@%_25_0 @__VERIFIER_nondet_short_0)
                (= main@%_27_0 (> main@%_24_0 (- 1)))
                (= main@%_28_0 (< main@%_24_0 main@%_1_0))
                (= main@%..i_0 (and main@%_27_0 main@%_28_0))
                main@%..i_0
                (= main@%_29_0 (> main@%_26_0 (- 1)))
                (= main@%_30_0 (< main@%_26_0 main@%_1_0))
                (= main@%_31_0 (and main@%_29_0 main@%_30_0))
                main@%_31_0
                (= main@%_32_0 main@%_24_0)
                (= main@%_33_0 main@%_26_0)
                (= main@%_34_0 (+ main@%_32_0 main@%_33_0))
                (= main@%_35_0 main@%_1_0)
                (= main@%_36_0 (+ main@%_35_0 (- 2)))
                (= main@%_37_0 (= main@%_34_0 main@%_36_0))
                (= main@%_38_0 main@%_1_0)
                (= main@%_39_0 (= main@%_34_0 main@%_38_0))
                (= main@%or.cond.i_0 (or main@%_37_0 main@%_39_0))
                (=> main@_bb9_0 (and main@_bb9_0 main@_bb8_0))
                (=> (and main@_bb9_0 main@_bb8_0) (not main@%or.cond.i_0))
                (=> main@_bb9_0 (= main@%_41_0 main@%_24_0))
                a!1
                (=> main@_bb9_0 (or (<= main@%_6_0 0) (> main@%_43_0 0)))
                (=> main@_bb9_0 (= main@%_44_0 main@%_26_0))
                a!2
                (=> main@_bb9_0 (or (<= main@%_43_0 0) (> main@%_45_0 0)))
                (=> main@_bb9_0 (> main@%_43_0 0))
                (=> main@_bb9_0
                    (= main@%_46_0 (select main@%shadow.mem.0.2_0 main@%_45_0)))
                (=> |tuple(main@_bb8_0, main@_bb10_0)| main@_bb8_0)
                (=> main@_bb10_0
                    (or (and main@_bb10_0 main@_bb9_0)
                        |tuple(main@_bb8_0, main@_bb10_0)|))
                (=> |tuple(main@_bb8_0, main@_bb10_0)| main@%or.cond.i_0)
                (=> (and main@_bb10_0 main@_bb9_0) (= main@%_48_0 main@%_46_0))
                (=> |tuple(main@_bb8_0, main@_bb10_0)| (= main@%_48_1 1))
                (=> (and main@_bb10_0 main@_bb9_0) (= main@%_48_2 main@%_48_0))
                (=> |tuple(main@_bb8_0, main@_bb10_0)|
                    (= main@%_48_2 main@%_48_1))
                (=> main@_bb10_0 (= main@%_49_0 main@%_24_0))
                a!3
                (=> main@_bb10_0 (or (<= main@%_6_0 0) (> main@%_51_0 0)))
                (=> main@_bb10_0 (= main@%_52_0 main@%_26_0))
                a!4
                (=> main@_bb10_0 (or (<= main@%_51_0 0) (> main@%_53_0 0)))
                (=> main@_bb10_0 (> main@%_51_0 0))
                (=> main@_bb10_0
                    (= main@%sm1_0
                       (store main@%shadow.mem.0.2_0 main@%_53_0 main@%_48_2)))
                (=> main@_bb10_0 (= main@%_54_0 @__VERIFIER_nondet_int_0))
                (=> main@_bb10_0 (= main@%_56_0 (= main@%_55_0 0)))
                (=> main@_bb11_0 (and main@_bb11_0 main@_bb10_0))
                (=> (and main@_bb11_0 main@_bb10_0) (not main@%_56_0))
                (=> main@_bb8_1 (and main@_bb8_1 main@_bb11_0))
                (=> (and main@_bb8_1 main@_bb11_0)
                    (= main@%shadow.mem.0.2_1 main@%sm1_0))
                (=> (and main@_bb8_1 main@_bb11_0)
                    (= main@%shadow.mem.0.2_2 main@%shadow.mem.0.2_1))
                main@_bb8_1)))
  (=> a!5
      (main@_bb8 main@%_4_0
                 main@%_6_0
                 main@%_1_0
                 main@%shadow.mem.0.2_2
                 @__VERIFIER_nondet_int_0
                 @__VERIFIER_nondet_short_0)))))
(rule (let ((a!1 (=> main@_bb9_0 (= main@%_43_0 (+ main@%_6_0 (* main@%_42_0 4)))))
      (a!2 (=> main@_bb9_0 (= main@%_45_0 (+ main@%_43_0 (* main@%_44_0 4)))))
      (a!3 (=> main@_bb10_0 (= main@%_51_0 (+ main@%_6_0 (* main@%_50_0 4)))))
      (a!4 (=> main@_bb10_0 (= main@%_53_0 (+ main@%_51_0 (* main@%_52_0 4))))))
(let ((a!5 (and (main@_bb8 main@%_4_0
                           main@%_6_0
                           main@%_1_0
                           main@%shadow.mem.0.2_0
                           @__VERIFIER_nondet_int_0
                           @__VERIFIER_nondet_short_0)
                true
                (= main@%_23_0 @__VERIFIER_nondet_short_0)
                (= main@%_25_0 @__VERIFIER_nondet_short_0)
                (= main@%_27_0 (> main@%_24_0 (- 1)))
                (= main@%_28_0 (< main@%_24_0 main@%_1_0))
                (= main@%..i_0 (and main@%_27_0 main@%_28_0))
                main@%..i_0
                (= main@%_29_0 (> main@%_26_0 (- 1)))
                (= main@%_30_0 (< main@%_26_0 main@%_1_0))
                (= main@%_31_0 (and main@%_29_0 main@%_30_0))
                main@%_31_0
                (= main@%_32_0 main@%_24_0)
                (= main@%_33_0 main@%_26_0)
                (= main@%_34_0 (+ main@%_32_0 main@%_33_0))
                (= main@%_35_0 main@%_1_0)
                (= main@%_36_0 (+ main@%_35_0 (- 2)))
                (= main@%_37_0 (= main@%_34_0 main@%_36_0))
                (= main@%_38_0 main@%_1_0)
                (= main@%_39_0 (= main@%_34_0 main@%_38_0))
                (= main@%or.cond.i_0 (or main@%_37_0 main@%_39_0))
                (=> main@_bb9_0 (and main@_bb9_0 main@_bb8_0))
                (=> (and main@_bb9_0 main@_bb8_0) (not main@%or.cond.i_0))
                (=> main@_bb9_0 (= main@%_41_0 main@%_24_0))
                a!1
                (=> main@_bb9_0 (or (<= main@%_6_0 0) (> main@%_43_0 0)))
                (=> main@_bb9_0 (= main@%_44_0 main@%_26_0))
                a!2
                (=> main@_bb9_0 (or (<= main@%_43_0 0) (> main@%_45_0 0)))
                (=> main@_bb9_0 (> main@%_43_0 0))
                (=> main@_bb9_0
                    (= main@%_46_0 (select main@%shadow.mem.0.2_0 main@%_45_0)))
                (=> |tuple(main@_bb8_0, main@_bb10_0)| main@_bb8_0)
                (=> main@_bb10_0
                    (or (and main@_bb10_0 main@_bb9_0)
                        |tuple(main@_bb8_0, main@_bb10_0)|))
                (=> |tuple(main@_bb8_0, main@_bb10_0)| main@%or.cond.i_0)
                (=> (and main@_bb10_0 main@_bb9_0) (= main@%_48_0 main@%_46_0))
                (=> |tuple(main@_bb8_0, main@_bb10_0)| (= main@%_48_1 1))
                (=> (and main@_bb10_0 main@_bb9_0) (= main@%_48_2 main@%_48_0))
                (=> |tuple(main@_bb8_0, main@_bb10_0)|
                    (= main@%_48_2 main@%_48_1))
                (=> main@_bb10_0 (= main@%_49_0 main@%_24_0))
                a!3
                (=> main@_bb10_0 (or (<= main@%_6_0 0) (> main@%_51_0 0)))
                (=> main@_bb10_0 (= main@%_52_0 main@%_26_0))
                a!4
                (=> main@_bb10_0 (or (<= main@%_51_0 0) (> main@%_53_0 0)))
                (=> main@_bb10_0 (> main@%_51_0 0))
                (=> main@_bb10_0
                    (= main@%sm1_0
                       (store main@%shadow.mem.0.2_0 main@%_53_0 main@%_48_2)))
                (=> main@_bb10_0 (= main@%_54_0 @__VERIFIER_nondet_int_0))
                (=> main@_bb10_0 (= main@%_56_0 (= main@%_55_0 0)))
                (=> main@_bb12_0 (and main@_bb12_0 main@_bb10_0))
                (=> (and main@_bb12_0 main@_bb10_0) main@%_56_0)
                (=> main@_bb13_0 (and main@_bb13_0 main@_bb12_0))
                (=> (and main@_bb13_0 main@_bb12_0) (= main@%.03.i_0 0))
                (=> (and main@_bb13_0 main@_bb12_0) (= main@%.1.i_0 0))
                (=> (and main@_bb13_0 main@_bb12_0)
                    (= main@%.03.i_1 main@%.03.i_0))
                (=> (and main@_bb13_0 main@_bb12_0)
                    (= main@%.1.i_1 main@%.1.i_0))
                main@_bb13_0)))
  (=> a!5
      (main@_bb13 main@%_4_0
                  main@%_6_0
                  main@%_1_0
                  main@%.1.i_1
                  main@%sm1_0
                  main@%.03.i_1)))))
(rule (let ((a!1 (and (main@_bb13 main@%_4_0
                            main@%_6_0
                            main@%_1_0
                            main@%.1.i_0
                            main@%sm1_0
                            main@%.03.i_0)
                true
                (= main@%_60_0 main@%_1_0)
                (= main@%_61_0 (< main@%.1.i_0 main@%_60_0))
                (=> main@orig.main.exit_0
                    (and main@orig.main.exit_0 main@_bb13_0))
                (=> (and main@orig.main.exit_0 main@_bb13_0) (not main@%_61_0))
                (=> main@orig.main.exit_0 (= main@%_76_0 main@%_1_0))
                (=> main@orig.main.exit_0 (= main@%_77_0 (* main@%_76_0 2)))
                (=> main@orig.main.exit_0 (= main@%_78_0 (+ main@%_77_0 (- 2))))
                (=> main@orig.main.exit_0 (= main@%_79_0 main@%_78_0))
                (=> main@orig.main.exit_0
                    (= main@%_80_0 (<= main@%.03.i_0 main@%_79_0)))
                (=> main@orig.main.exit_0 (= main@%_81_0 (ite main@%_80_0 1 0)))
                (=> main@orig.main.exit_0 (not main@%_82_0))
                (=> main@precall_0 (and main@precall_0 main@orig.main.exit_0))
                (=> main@__JVERIFIER_assert_0
                    (and main@__JVERIFIER_assert_0 main@precall_0))
                (=> main@__JVERIFIER_assert_0 (= main@%_83_0 (= main@%_81_0 0)))
                (=> main@__JVERIFIER_assert_0 main@%_83_0)
                (=> main@_bb18_0 (and main@_bb18_0 main@__JVERIFIER_assert_0))
                (=> main@verifier.error_0
                    (and main@verifier.error_0 main@_bb18_0))
                (=> main@verifier.error.split_0
                    (and main@verifier.error.split_0 main@verifier.error_0))
                main@verifier.error.split_0)))
  (=> a!1 main@verifier.error.split)))
(rule (=> (and (main@_bb13 main@%_4_0
                     main@%_6_0
                     main@%_1_0
                     main@%.1.i_0
                     main@%sm1_0
                     main@%.03.i_0)
         true
         (= main@%_60_0 main@%_1_0)
         (= main@%_61_0 (< main@%.1.i_0 main@%_60_0))
         (=> main@_bb14_0 (and main@_bb14_0 main@_bb13_0))
         (=> (and main@_bb14_0 main@_bb13_0) main@%_61_0)
         (=> main@_bb15_0 (and main@_bb15_0 main@_bb14_0))
         (=> (and main@_bb15_0 main@_bb14_0) (= main@%.14.i_0 main@%.03.i_0))
         (=> (and main@_bb15_0 main@_bb14_0) (= main@%.12.i_0 0))
         (=> (and main@_bb15_0 main@_bb14_0) (= main@%.14.i_1 main@%.14.i_0))
         (=> (and main@_bb15_0 main@_bb14_0) (= main@%.12.i_1 main@%.12.i_0))
         main@_bb15_0)
    (main@_bb15 main@%_4_0
                main@%_6_0
                main@%_1_0
                main@%.1.i_0
                main@%.12.i_1
                main@%sm1_0
                main@%.14.i_1)))
(rule (let ((a!1 (and (main@_bb15 main@%_4_0
                            main@%_6_0
                            main@%_1_0
                            main@%.1.i_0
                            main@%.12.i_0
                            main@%sm1_0
                            main@%.14.i_0)
                true
                (= main@%_64_0 main@%_1_0)
                (= main@%_65_0 (< main@%.12.i_0 main@%_64_0))
                (=> main@_bb17_0 (and main@_bb17_0 main@_bb15_0))
                (=> (and main@_bb17_0 main@_bb15_0) (not main@%_65_0))
                (=> main@_bb17_0 (= main@%_75_0 (+ main@%.1.i_0 1)))
                (=> main@_bb13_0 (and main@_bb13_0 main@_bb17_0))
                (=> (and main@_bb13_0 main@_bb17_0)
                    (= main@%.03.i_0 main@%.14.i_0))
                (=> (and main@_bb13_0 main@_bb17_0)
                    (= main@%.1.i_1 main@%_75_0))
                (=> (and main@_bb13_0 main@_bb17_0)
                    (= main@%.03.i_1 main@%.03.i_0))
                (=> (and main@_bb13_0 main@_bb17_0)
                    (= main@%.1.i_2 main@%.1.i_1))
                main@_bb13_0)))
  (=> a!1
      (main@_bb13 main@%_4_0
                  main@%_6_0
                  main@%_1_0
                  main@%.1.i_2
                  main@%sm1_0
                  main@%.03.i_1))))
(rule (let ((a!1 (=> main@_bb16_0 (= main@%_68_0 (+ main@%_6_0 (* main@%_67_0 4)))))
      (a!2 (=> main@_bb16_0 (= main@%_69_0 (+ main@%_68_0 (* main@%.12.i_0 4))))))
(let ((a!3 (and (main@_bb15 main@%_4_0
                            main@%_6_0
                            main@%_1_0
                            main@%.1.i_0
                            main@%.12.i_0
                            main@%sm1_0
                            main@%.14.i_0)
                true
                (= main@%_64_0 main@%_1_0)
                (= main@%_65_0 (< main@%.12.i_0 main@%_64_0))
                (=> main@_bb16_0 (and main@_bb16_0 main@_bb15_0))
                (=> (and main@_bb16_0 main@_bb15_0) main@%_65_0)
                a!1
                (=> main@_bb16_0 (or (<= main@%_6_0 0) (> main@%_68_0 0)))
                a!2
                (=> main@_bb16_0 (or (<= main@%_68_0 0) (> main@%_69_0 0)))
                (=> main@_bb16_0 (> main@%_68_0 0))
                (=> main@_bb16_0
                    (= main@%_70_0 (select main@%sm1_0 main@%_69_0)))
                (=> main@_bb16_0 (= main@%_71_0 main@%_70_0))
                (=> main@_bb16_0 (= main@%_72_0 (+ main@%.14.i_0 main@%_71_0)))
                (=> main@_bb16_0 (= main@%_73_0 (+ main@%.12.i_0 1)))
                (=> main@_bb15_1 (and main@_bb15_1 main@_bb16_0))
                (=> (and main@_bb15_1 main@_bb16_0)
                    (= main@%.14.i_1 main@%_72_0))
                (=> (and main@_bb15_1 main@_bb16_0)
                    (= main@%.12.i_1 main@%_73_0))
                (=> (and main@_bb15_1 main@_bb16_0)
                    (= main@%.14.i_2 main@%.14.i_1))
                (=> (and main@_bb15_1 main@_bb16_0)
                    (= main@%.12.i_2 main@%.12.i_1))
                main@_bb15_1)))
  (=> a!3
      (main@_bb15 main@%_4_0
                  main@%_6_0
                  main@%_1_0
                  main@%.1.i_0
                  main@%.12.i_2
                  main@%sm1_0
                  main@%.14.i_2)))))
(rule (let ((a!1 (and (main@_bb4 main@%.0.i_0
                           main@%_4_0
                           main@%_6_0
                           main@%.01.i_0
                           main@%shadow.mem.0.1_0
                           main@%_1_0
                           @__VERIFIER_nondet_int_0
                           @__VERIFIER_nondet_short_0)
                true
                (= main@%_12_0 main@%_1_0)
                (= main@%_13_0 (< main@%.01.i_0 main@%_12_0))
                (=> main@_bb6_0 (and main@_bb6_0 main@_bb4_0))
                (=> (and main@_bb6_0 main@_bb4_0) (not main@%_13_0))
                (=> main@_bb6_0 (= main@%_20_0 (+ main@%.0.i_0 1)))
                (=> main@_bb_0 (and main@_bb_0 main@_bb6_0))
                (=> (and main@_bb_0 main@_bb6_0)
                    (= main@%shadow.mem.0.0_0 main@%shadow.mem.0.1_0))
                (=> (and main@_bb_0 main@_bb6_0) (= main@%.0.i_1 main@%_20_0))
                (=> (and main@_bb_0 main@_bb6_0)
                    (= main@%shadow.mem.0.0_1 main@%shadow.mem.0.0_0))
                (=> (and main@_bb_0 main@_bb6_0) (= main@%.0.i_2 main@%.0.i_1))
                main@_bb_0)))
  (=> a!1
      (main@_bb main@%.0.i_2
                main@%_4_0
                main@%_6_0
                main@%shadow.mem.0.0_1
                main@%_1_0
                @__VERIFIER_nondet_int_0
                @__VERIFIER_nondet_short_0))))
(rule (let ((a!1 (=> main@_bb5_0 (= main@%_16_0 (+ main@%_6_0 (* main@%_15_0 4)))))
      (a!2 (=> main@_bb5_0 (= main@%_17_0 (+ main@%_16_0 (* main@%.01.i_0 4))))))
(let ((a!3 (and (main@_bb4 main@%.0.i_0
                           main@%_4_0
                           main@%_6_0
                           main@%.01.i_0
                           main@%shadow.mem.0.1_0
                           main@%_1_0
                           @__VERIFIER_nondet_int_0
                           @__VERIFIER_nondet_short_0)
                true
                (= main@%_12_0 main@%_1_0)
                (= main@%_13_0 (< main@%.01.i_0 main@%_12_0))
                (=> main@_bb5_0 (and main@_bb5_0 main@_bb4_0))
                (=> (and main@_bb5_0 main@_bb4_0) main@%_13_0)
                a!1
                (=> main@_bb5_0 (or (<= main@%_6_0 0) (> main@%_16_0 0)))
                a!2
                (=> main@_bb5_0 (or (<= main@%_16_0 0) (> main@%_17_0 0)))
                (=> main@_bb5_0 (> main@%_16_0 0))
                (=> main@_bb5_0
                    (= main@%sm_0 (store main@%shadow.mem.0.1_0 main@%_17_0 0)))
                (=> main@_bb5_0 (= main@%_18_0 (+ main@%.01.i_0 1)))
                (=> main@_bb4_1 (and main@_bb4_1 main@_bb5_0))
                (=> (and main@_bb4_1 main@_bb5_0)
                    (= main@%shadow.mem.0.1_1 main@%sm_0))
                (=> (and main@_bb4_1 main@_bb5_0) (= main@%.01.i_1 main@%_18_0))
                (=> (and main@_bb4_1 main@_bb5_0)
                    (= main@%shadow.mem.0.1_2 main@%shadow.mem.0.1_1))
                (=> (and main@_bb4_1 main@_bb5_0)
                    (= main@%.01.i_2 main@%.01.i_1))
                main@_bb4_1)))
  (=> a!3
      (main@_bb4 main@%.0.i_0
                 main@%_4_0
                 main@%_6_0
                 main@%.01.i_2
                 main@%shadow.mem.0.1_2
                 main@%_1_0
                 @__VERIFIER_nondet_int_0
                 @__VERIFIER_nondet_short_0)))))
(query main@verifier.error.split)

